mixintcount/benchmarks/random_v2l/3_3_501.in
12 5
#	x1	x2	x3;		0 = Real; 1 = Integer
	1	1	1
1	-1	7	6	222
1	9	-9	-6	366
1	8	8	-10	-12
1	-1	8	3	474
1	-2	4	-3	341
1	-3	-2	-3	-484
1	1	0	0	501
1	-1	0	0	501
1	0	1	0	501
1	0	-1	0	501
1	0	0	1	501
1	0	0	-1	501
